Number of variables: 21296
Number of constraints: 14694
Constraints density: 0.00016528005266873213
Maximum factor: 5374.0
Minimum factor: -0.33
67.26503372192383ms cplex
5003.80802154541ms TIMEOUT_EXCEPTION glpk
5004.4214725494385ms TIMEOUT_EXCEPTION lp_solve
468.1963920593262ms clp
-0.0 Value of objective function EXCEPTION [cplex]
-0.0 Value of objective function EXCEPTION [lp_solve]
-6972382300.0 Value of objective function [clp]
